benchmarks/bfuzz0/3077930228172957376101102382123922610.smt2
(set-logic QF_FP)
(declare-const x0 (_ FloatingPoint 8 24))
(declare-const x1 (_ FloatingPoint 8 24))
(declare-const x2 (_ FloatingPoint 8 24))
(declare-const x3 (_ FloatingPoint 8 24))
(declare-const x4 (_ FloatingPoint 8 24))
(declare-const x5 (_ FloatingPoint 8 24))
(declare-const x6 (_ FloatingPoint 8 24))
(declare-const x7 (_ FloatingPoint 8 24))
(declare-const x8 (_ FloatingPoint 8 24))
(declare-const x9 (_ FloatingPoint 8 24))
(declare-const x10 (_ FloatingPoint 8 24))
(declare-const x11 (_ FloatingPoint 8 24))
(declare-const x12 (_ FloatingPoint 8 24))
(declare-const x13 (_ FloatingPoint 8 24))
(declare-const x14 (_ FloatingPoint 8 24))
(declare-const x15 (_ FloatingPoint 8 24))
(declare-const x16 (_ FloatingPoint 8 24))
(declare-const x17 (_ FloatingPoint 8 24))
(declare-const x18 (_ FloatingPoint 8 24))
(declare-const x19 (_ FloatingPoint 8 24))
(assert (fp.gt (fp.div RNE x6 x19) (fp.add RNE x0 x0)))
(assert (fp.gt (fp.add RNE x9 x12) (fp.sub RNE x4 x12)))
(assert (fp.geq (fp.add RNE x15 x19) (fp.div RNE x3 x3)))
(assert (fp.gt (fp.neg x1) (fp.mul RNE x4 x8)))
(assert (fp.gt (fp.add RNE x18 x8) (fp.mul RNE x10 x13)))
(assert (fp.gt (fp.sub RNE x7 x13) (fp.neg x19)))
(assert (fp.eq (fp.mul RNE x0 x4) (fp.sub RNE x9 x10)))
(assert (fp.leq (fp.sub RNE x12 x2) (fp.add RNE x6 x7)))
(assert (fp.eq (fp.add RNE x8 x6) (fp.add RNE x6 x13)))
(assert (fp.leq (fp.add RNE x14 x3) (fp.add RNE x16 x18)))
(assert (fp.geq (fp.div RNE x6 x9) (fp.add RNE x8 x12)))
(assert (fp.gt (fp.add RNE x7 x3) (fp.mul RNE x3 x8)))
(assert (fp.eq (fp.div RNE x16 x8) (fp.neg x10)))
(assert (fp.leq (fp.mul RNE x0 x19) (fp.mul RNE x7 x19)))
(check-sat)
