db/data/3077930228172957376101102382123922610.z3.out
sat
-------------------
219.521253562
